c Generated map
c Size: 12 * 12, weights in range: 1 to 10, walls: True, with ratio 0.05
c dim 5 of 5
c
p sp 144 239
c graph contains 144 nodes and 239 arcs
c
a 1 2 1
a 2 1 1
a 2 14 5
a 14 2 5
a 2 3 6
a 3 2 6
a 3 15 6
a 15 3 6
a 3 4 1
a 4 3 1
a 4 16 7
a 16 4 7
a 4 5 5
a 5 4 5
a 5 17 5
a 17 5 5
a 5 6 4
a 6 5 4
a 6 18 1
a 18 6 1
a 6 7 6
a 7 6 6
a 7 8 5
a 8 7 5
a 8 20 2
a 20 8 2
a 8 9 1
a 9 8 1
a 9 21 8
a 21 9 8
a 9 10 8
a 10 9 8
a 10 11 8
a 11 10 8
a 11 23 1
a 23 11 1
a 11 12 7
a 12 11 7
a 12 24 6
a 24 12 6
a 14 26 7
a 26 14 7
a 14 15 10
a 15 14 10
a 15 27 9
a 27 15 9
a 15 16 8
a 16 15 8
a 16 28 9
a 28 16 9
a 16 17 8
a 17 16 8
a 17 29 8
a 29 17 8
a 17 18 5
a 18 17 5
a 18 30 7
a 30 18 7
a 20 32 3
a 32 20 3
a 20 21 5
a 21 20 5
a 21 33 7
a 33 21 7
a 23 35 9
a 35 23 9
a 23 24 4
a 24 23 4
a 24 36 5
a 36 24 5
a 25 26 3
a 26 25 3
a 26 38 8
a 38 26 8
a 26 27 7
a 27 26 7
a 27 39 5
a 39 27 5
a 27 28 5
a 28 27 5
a 28 40 8
a 40 28 8
a 28 29 1
a 29 28 1
a 29 41 8
a 41 29 8
a 29 30 6
a 30 29 6
a 30 42 5
a 42 30 5
a 30 31 3
a 31 30 3
a 31 43 10
a 43 31 10
a 31 32 9
a 32 31 9
a 32 44 3
a 44 32 3
a 32 33 7
a 33 32 7
a 33 45 5
a 45 33 5
a 33 34 10
a 34 33 10
a 34 46 5
a 46 34 5
a 34 35 3
a 35 34 3
a 35 47 10
a 47 35 10
a 35 36 7
a 36 35 7
a 36 48 2
a 48 36 2
a 38 50 7
a 50 38 7
a 38 39 4
a 39 38 4
a 39 51 1
a 51 39 1
a 39 40 5
a 40 39 5
a 40 52 3
a 52 40 3
a 40 41 10
a 41 40 10
a 41 53 4
a 53 41 4
a 41 42 3
a 42 41 3
a 42 54 2
a 54 42 2
a 42 43 9
a 43 42 9
a 43 55 3
a 55 43 3
a 43 44 9
a 44 43 9
a 44 56 3
a 56 44 3
a 44 45 10
a 45 44 10
a 45 57 4
a 57 45 4
a 45 46 4
a 46 45 4
a 46 58 4
a 58 46 4
a 46 47 2
a 47 46 2
a 47 59 8
a 59 47 8
a 47 48 9
a 48 47 9
a 48 60 3
a 60 48 3
a 49 61 10
a 61 49 10
a 49 50 4
a 50 49 4
a 50 62 2
a 62 50 2
a 50 51 5
a 51 50 5
a 51 63 10
a 63 51 10
a 51 52 3
a 52 51 3
a 52 64 9
a 64 52 9
a 52 53 3
a 53 52 3
a 53 65 9
a 65 53 9
a 53 54 6
a 54 53 6
a 54 66 5
a 66 54 5
a 54 55 9
a 55 54 9
a 55 67 1
a 67 55 1
a 55 56 9
a 56 55 9
a 56 68 8
a 68 56 8
a 56 57 5
a 57 56 5
a 57 69 2
a 69 57 2
a 57 58 4
a 58 57 4
a 58 70 3
a 70 58 3
a 58 59 4
a 59 58 4
a 59 71 9
a 71 59 9
a 59 60 6
a 60 59 6
a 60 72 3
a 72 60 3
a 61 73 8
a 73 61 8
a 61 62 8
a 62 61 8
a 62 74 8
a 74 62 8
a 62 63 3
a 63 62 3
a 63 75 4
a 75 63 4
a 63 64 6
a 64 63 6
a 64 76 7
a 76 64 7
a 64 65 6
a 65 64 6
a 65 77 3
a 77 65 3
a 65 66 8
a 66 65 8
a 66 78 3
a 78 66 3
a 66 67 6
a 67 66 6
a 67 79 7
a 79 67 7
a 67 68 10
a 68 67 10
a 68 80 4
a 80 68 4
a 68 69 2
a 69 68 2
a 69 81 2
a 81 69 2
a 69 70 10
a 70 69 10
a 70 82 1
a 82 70 1
a 70 71 9
a 71 70 9
a 71 83 10
a 83 71 10
a 71 72 10
a 72 71 10
a 72 84 2
a 84 72 2
a 73 85 9
a 85 73 9
a 73 74 1
a 74 73 1
a 74 86 6
a 86 74 6
a 74 75 2
a 75 74 2
a 75 87 9
a 87 75 9
a 75 76 3
a 76 75 3
a 76 88 5
a 88 76 5
a 76 77 1
a 77 76 1
a 77 89 4
a 89 77 4
a 77 78 9
a 78 77 9
a 78 90 6
a 90 78 6
a 78 79 5
a 79 78 5
a 79 91 3
a 91 79 3
a 79 80 9
a 80 79 9
a 80 92 3
a 92 80 3
a 80 81 4
a 81 80 4
a 81 93 2
a 93 81 2
a 81 82 1
a 82 81 1
a 82 83 6
a 83 82 6
a 83 95 10
a 95 83 10
a 83 84 1
a 84 83 1
a 84 96 9
a 96 84 9
a 85 97 7
a 97 85 7
a 85 86 5
a 86 85 5
a 86 98 3
a 98 86 3
a 86 87 7
a 87 86 7
a 87 99 5
a 99 87 5
a 87 88 8
a 88 87 8
a 88 100 2
a 100 88 2
a 88 89 8
a 89 88 8
a 89 101 3
a 101 89 3
a 89 90 10
a 90 89 10
a 90 102 3
a 102 90 3
a 90 91 2
a 91 90 2
a 91 103 2
a 103 91 2
a 91 92 6
a 92 91 6
a 92 104 7
a 104 92 7
a 92 93 8
a 93 92 8
a 93 105 2
a 105 93 2
a 95 107 5
a 107 95 5
a 95 96 8
a 96 95 8
a 96 108 9
a 108 96 9
a 97 109 8
a 109 97 8
a 97 98 9
a 98 97 9
a 98 110 6
a 110 98 6
a 98 99 10
a 99 98 10
a 99 100 2
a 100 99 2
a 100 112 7
a 112 100 7
a 100 101 5
a 101 100 5
a 101 113 10
a 113 101 10
a 101 102 6
a 102 101 6
a 102 114 4
a 114 102 4
a 102 103 2
a 103 102 2
a 103 115 10
a 115 103 10
a 103 104 10
a 104 103 10
a 104 116 4
a 116 104 4
a 104 105 4
a 105 104 4
a 105 117 3
a 117 105 3
a 105 106 9
a 106 105 9
a 106 118 1
a 118 106 1
a 106 107 4
a 107 106 4
a 107 119 5
a 119 107 5
a 107 108 6
a 108 107 6
a 108 120 4
a 120 108 4
a 109 121 6
a 121 109 6
a 109 110 8
a 110 109 8
a 110 122 1
a 122 110 1
a 112 124 10
a 124 112 10
a 112 113 10
a 113 112 10
a 113 125 3
a 125 113 3
a 113 114 8
a 114 113 8
a 114 126 1
a 126 114 1
a 114 115 6
a 115 114 6
a 115 127 1
a 127 115 1
a 115 116 9
a 116 115 9
a 116 128 3
a 128 116 3
a 116 117 9
a 117 116 9
a 117 129 5
a 129 117 5
a 117 118 5
a 118 117 5
a 118 130 1
a 130 118 1
a 118 119 2
a 119 118 2
a 119 131 2
a 131 119 2
a 119 120 7
a 120 119 7
a 120 132 5
a 132 120 5
a 121 133 5
a 133 121 5
a 121 122 8
a 122 121 8
a 122 134 5
a 134 122 5
a 122 123 2
a 123 122 2
a 123 135 2
a 135 123 2
a 123 124 4
a 124 123 4
a 124 136 1
a 136 124 1
a 124 125 1
a 125 124 1
a 125 137 6
a 137 125 6
a 125 126 7
a 126 125 7
a 126 138 3
a 138 126 3
a 126 127 8
a 127 126 8
a 127 139 7
a 139 127 7
a 127 128 6
a 128 127 6
a 128 140 10
a 140 128 10
a 128 129 1
a 129 128 1
a 129 141 3
a 141 129 3
a 129 130 2
a 130 129 2
a 130 131 1
a 131 130 1
a 131 143 10
a 143 131 10
a 131 132 8
a 132 131 8
a 132 144 10
a 144 132 10
a 133 134 8
a 134 133 8
a 134 135 4
a 135 134 4
a 135 136 3
a 136 135 3
a 136 137 7
a 137 136 7
a 137 138 7
a 138 137 7
a 138 139 9
a 139 138 9
a 139 140 1
a 140 139 1
a 140 141 9
a 141 140 9
a 143 144 9
a 144 143 9
